c   #vars: 43   #clauses: 180   #literals: 517
c 
p cnf 43 180
-1 -2 0
17 37 38 -40 0
-4 -5 0
-6 -7 0
-8 -9 0
-10 -11 0
-12 -13 0
14 24 25 -30 0
3 -7 -26 39 0
-15 -16 0
29 -34 42 43 0
-18 -19 0
-20 -21 0
-22 -23 0
-24 -25 0
-26 -27 0
20 21 -29 34 0
-30 -31 0
-32 -33 0
-5 6 7 39 0
-35 -36 0
-37 -38 0
10 11 15 16 0
28 -37 -38 0
28 30 31 -41 0
-40 -41 0
-42 -43 0
20 21 32 33 0
8 9 20 21 0
1 2 20 21 0
-1 -20 0
-2 -21 0
17 -32 40 41 0
-1 -24 0
-2 -25 0
24 25 35 36 0
-1 -26 0
-2 -27 0
-1 -30 0
-2 -31 0
10 11 22 23 0
14 -24 30 31 0
17 -32 37 38 0
-3 -23 0
10 11 29 -34 0
17 32 33 -40 0
-3 -27 0
6 7 37 38 0
17 32 33 -37 0
28 30 31 -38 0
28 -37 -38 -41 0
-4 -18 0
-5 -19 0
1 2 24 25 0
-4 -39 0
28 37 38 -41 0
12 13 40 41 0
-4 -40 0
-5 -41 0
-4 -42 0
-5 -43 0
-6 -20 0
-7 -21 0
18 19 40 41 0
-6 -37 0
-7 -38 0
14 -18 30 31 0
-6 -39 0
28 -31 37 38 0
3 -22 26 27 0
-6 -42 0
-7 -43 0
10 11 35 36 0
10 11 32 33 0
17 -37 40 41 0
-8 -15 0
-9 -16 0
8 9 18 19 0
-8 -18 0
-9 -19 0
18 19 37 38 0
-8 -20 0
-9 -21 0
-8 -30 0
-9 -31 0
-8 -34 0
-3 6 7 39 0
4 5 18 19 0
-8 -40 0
-9 -41 0
4 5 42 43 0
-10 -15 0
-11 -16 0
-10 -22 0
-11 -23 0
-9 29 34 -42 0
-9 20 21 34 0
-11 -29 0
12 13 26 27 0
-10 -32 0
-11 -33 0
15 16 42 43 0
-10 -35 0
-11 -36 0
8 9 40 41 0
-12 -15 0
-13 -16 0
22 23 35 36 0
-12 -26 0
-13 -27 0
-12 -32 0
-13 -33 0
-12 -40 0
-13 -41 0
14 18 19 -24 0
6 7 20 21 0
28 -31 40 41 0
24 25 30 31 0
-14 -19 0
14 -18 24 25 0
3 -5 -26 39 0
-14 -25 0
3 22 23 -39 0
-14 -31 0
-21 29 34 -42 0
-12 -13 18 19 0
26 27 32 33 0
22 23 30 31 0
12 13 -18 -19 0
14 18 19 -30 0
-15 -42 0
-16 -43 0
1 2 26 27 0
-10 29 42 43 0
-17 -33 0
3 -5 -22 39 0
-17 -38 0
12 13 15 16 0
3 -7 -22 39 0
-17 -41 0
8 9 15 16 0
-18 -37 0
-19 -38 0
-18 -40 0
-19 -41 0
3 26 27 -39 0
-9 -10 29 34 0
28 -38 40 41 0
-20 -32 0
-21 -33 0
20 21 35 36 0
-20 -34 0
4 5 -7 39 0
6 7 42 43 0
-20 -35 0
-21 -36 0
-10 -21 29 34 0
-22 -30 0
-23 -31 0
-22 -35 0
-23 -36 0
10 11 29 -42 0
-24 -30 0
-25 -31 0
4 5 40 41 0
-24 -35 0
-25 -36 0
1 2 30 31 0
-26 -32 0
-27 -33 0
-28 -30 0
-28 -37 0
12 13 32 33 0
-28 -40 0
8 9 30 31 0
8 9 -29 34 0
-3 4 5 39 0
3 22 23 -26 0
8 9 -21 34 0
-29 -43 0
